 &CONTROL
    calculation  = 'scf'
    prefix       = 'diam'
    restart_mode = 'from_scratch'
    verbosity    = 'high'
    pseudo_dir   = '../pseudo/'
    outdir       = './temp/'
    tprnfor      = .true.
    tstress      = .true.
 /
 &SYSTEM
    ibrav        = 0
    celldm(1)    = 6.64245
    nat          = 12
    ntyp         = 1
    ecutwfc      = 60
    occupations  = 'fixed'
 /
 &ELECTRONS
    diagonalization = 'david'
    mixing_beta  = 0.7
    conv_thr     = 1.0d-10
 /
CELL_PARAMETERS alat
     1.000000000000     0.000000000000     0.000000000000
     0.000000000000     2.000000000000     0.000000000000
     0.000000000000     0.000000000000     3.000000000000
ATOMIC_SPECIES
  C  12.01078  C_ONCV_PBE_sr.upf
ATOMIC_POSITIONS alat 
 C1       0.000142111913     0.000142029979    -0.000000081934
 C2       0.250138907960     0.250138824888     0.249999916928
 C1      -0.000142111913     0.999857970021     0.000000081934
 C2       0.249861092040     1.249861175112     0.250000083072
 C1      -0.000077162426    -0.000077133532     1.000000028894
 C2       0.249903851743     0.249903893279     1.250000041536
 C1       0.000077162426     1.000077133532     0.999999971106
 C2       0.250096148257     1.250096106721     1.249999958464
 C1      -0.000064949487    -0.000064896447     2.000000053039
 C2       0.249957240298     0.249957281834     2.250000041536
 C1       0.000064949487     1.000064896447     1.999999946961
 C2       0.250042759702     1.250042718166     2.249999958464
K_POINTS automatic
8 8 8 0 0 0
